NAME : 10_3_3_2_(34).dat
COMMENT : Henke, Speranza, Wäscher, 2015
TYPE : MCVRP
DIMENSION : 11
EDGE_WEIGHT_TYPE : DISTANCE_MATRIX
CAPACITY : 1000
VEHICLES : 3
PRODUCT TYPES : 3
COMPARTMENTS : 3
NODE_COORD_SECTION
1 50 50
2 49.46 23.86
3 95.3 46.91
4 80.71 47.53
5 78.08 28.78
6 52.03 85.23
7 81.4 87.62
8 23.78 59.18
9 87.89 71.9
10 54.93 94.3
11 15.32 19.17
DEMAND_SECTION
1 0 0 0
2 35 123 0
3 0 30 70
4 136 0 91
5 42 133 0
6 145 27 0
7 62 0 79
8 71 0 2
9 146 0 80
10 37 110 0
11 131 59 0
DEPOT_SECTION
1
EOF